(set-logic QF_AUFBV)
(declare-fun bvlambda_1_ () (_ BitVec 1))
(declare-fun bvlambda_2_ () (_ BitVec 2))
(declare-fun bvlambda_3_ () (_ BitVec 1))
(declare-fun bvlambda_4_ () (_ BitVec 11))
(declare-fun a50 () (Array (_ BitVec 1) (_ BitVec 5)))
(assert
(let (($e1 (_ bv0 1)))
(let (($e2 (_ bv0 2)))
(let (($e3 (_ bv0 5)))
(let (($e4 (_ bv192 8)))
(let (($e5 (_ bv60 7)))
(let (($e6 (_ bv1488 11)))
(let (($e7 (_ bv1618 12)))
(let (($e8 (_ bv2 3)))
(let (($e9 (_ bv30290 15)))
(let (($e10 (_ bv0 15)))
(let (($e11 (_ bv1490 11)))
(let (($e12 (_ bv56 9)))
(let (($e13 (_ bv2 5)))
(let (($e14 (_ bv28 5)))
(let (($e15 (_ bv8 5)))
(let (($e16 (_ bv0 4)))
(let (($e17 (_ bv0 10)))
(let (($e18 (_ bv0 6)))
(let (($e19 (_ bv0 8)))
(let (($e20 (_ bv30 5)))
(let (($e21 (_ bv0 7)))
(let (($e22 (_ bv16208 15)))
(let (($e23 (_ bv14 4)))
(let (($e24 (_ bv30290 16)))
(let (($e25 (_ bv64980 16)))
(let (($e26 (_ bv15936 14)))
(let (($e27 (_ bv0 9)))
(let (($e28 (_ bv0 3)))
(let (($e29 (_ bv60 6)))
(let (($e30 (_ bv16208 14)))
(let (($e31 (_ bv2 15)))
(let (($e32 (_ bv0 14)))
(let (($e33 (_ bv0 12)))
(let (($e34 (_ bv32208 15)))
(let (($e35 (_ bv464 10)))
(let (($e36 (_ bv2 4)))
(let (($e37 (_ bv12 4)))
(let (($e38 (_ bv13906 14)))
(let (($e39 (_ bv0 11)))
(let (($e40 (_ bv16322 14)))
(let (($e41 (_ bv174 14)))
(let (($e42 (_ bv4032 12)))
(let (($e43 (_ bv4092 12)))
(let (($e44 (_ bv1760 15)))
(let (($e45 (_ bv1490 15)))
(let (($e51 (concat bvlambda_1_ bvlambda_2_)))
(let (($e52 (concat $e51 bvlambda_3_)))
(let (($e53 (concat $e52 bvlambda_4_)))
(let (($e54 (bvand $e9 (bvnot $e53))))
(let (($e55 (ite (= $e10 $e54) #b1 #b0)))
(let (($e56 (select a50 (bvnot $e1))))
(let (($e57 ((_ extract 1 1) $e56)))
(let (($e58 (store a50 (bvnot $e1) $e13)))
(let (($e59 (store $e58 bvlambda_3_ (bvnot $e15))))
(let (($e60 (select $e59 $e57)))
(let (($e61 (concat $e2 $e60)))
(let (($e62 (concat (bvnot $e2) $e60)))
(let (($e63 ((_ extract 4 4) $e60)))
(let (($e64 (ite (= #b1 $e63) $e62 $e61)))
(let (($e65 (ite (= (bvnot $e5) $e64) #b1 #b0)))
(let (($e66 ((_ extract 0 0) $e56)))
(let (($e67 (ite (= $e66 $e65) #b1 #b0)))
(let (($e68 ((_ extract 4 1) $e56)))
(let (($e69 (ite (= $e16 $e68) #b1 #b0)))
(let (($e70 (bvand $e69 $e67)))
(let (($e71 ((_ extract 3 3) $e56)))
(let (($e72 (concat $e28 $e71)))
(let (($e73 (select $e59 (bvnot $e1))))
(let (($e74 ((_ extract 3 0) $e73)))
(let (($e75 (ite (bvult $e74 $e72) #b1 #b0)))
(let (($e76 ((_ extract 4 4) $e73)))
(let (($e77 (bvand (bvnot $e76) (bvnot $e75))))
(let (($e78 (bvand (bvnot $e77) (bvnot $e70))))
(let (($e79 ((_ extract 2 2) $e56)))
(let (($e80 (store a50 (bvnot $e1) (bvnot $e14))))
(let (($e81 (store $e80 $e1 (bvnot $e3))))
(let (($e82 (select $e81 $e79)))
(let (($e83 ((_ extract 2 2) $e82)))
(let (($e84 (select $e58 $e83)))
(let (($e85 (concat $e17 $e84)))
(let (($e86 (concat (bvnot $e17) $e84)))
(let (($e87 ((_ extract 4 4) $e84)))
(let (($e88 (ite (= #b1 $e87) $e86 $e85)))
(let (($e89 (bvand $e88 $e53)))
(let (($e90 (bvand (bvnot $e88) (bvnot $e53))))
(let (($e91 (bvand (bvnot $e90) (bvnot $e89))))
(let (($e92 ((_ extract 14 14) $e91)))
(let (($e93 (select a50 $e1)))
(let (($e94 (ite (= $e3 (bvnot $e93)) #b1 #b0)))
(let (($e95 (bvand $e94 (bvnot $e92))))
(let (($e96 (bvand $e77 (bvnot $e95))))
(let (($e97 (bvand (bvnot $e96) (bvnot $e78))))
(let (($e98 ((_ extract 3 0) $e56)))
(let (($e99 (ite (bvult (bvnot $e23) $e98) #b1 #b0)))
(let (($e100 ((_ extract 4 4) $e56)))
(let (($e101 (bvand (bvnot $e100) $e99)))
(let (($e102 (ite (= (bvnot $e3) (bvnot $e93)) #b1 #b0)))
(let (($e103 (bvand $e102 $e101)))
(let (($e104 (bvand $e103 (bvnot $e97))))
(let (($e105 (ite (= $e3 $e60) #b1 #b0)))
(let (($e106 ((_ extract 4 4) $e93)))
(let (($e107 (bvand $e106 $e105)))
(let (($e108 (bvand (bvnot $e106) (bvnot $e105))))
(let (($e109 (bvand (bvnot $e108) (bvnot $e107))))
(let (($e110 (ite (= $e109 $e104) #b1 #b0)))
(let (($e111 ((_ extract 13 0) $e91)))
(let (($e112 (ite (bvult $e41 $e111) #b1 #b0)))
(let (($e113 (bvand $e92 (bvnot $e112))))
(let (($e114 ((_ extract 4 4) $e82)))
(let (($e115 ((_ extract 3 0) $e93)))
(let (($e116 (ite (bvult $e115 (bvnot $e37)) #b1 #b0)))
(let (($e117 (bvand (bvnot $e106) (bvnot $e116))))
(let (($e118 (bvand $e117 (bvnot $e114))))
(let (($e119 (bvand $e118 (bvnot $e113))))
(let (($e120 (concat $e1 (bvnot bvlambda_1_))))
(let (($e121 (concat $e120 (bvnot bvlambda_2_))))
(let (($e122 (concat $e121 (bvnot bvlambda_3_))))
(let (($e123 (concat $e122 (bvnot bvlambda_4_))))
(let (($e124 (bvand $e24 $e123)))
(let (($e125 (bvshl $e124  ((_ zero_extend 12) (bvnot $e23)))))
(let (($e126 ((_ extract 10 0) $e125)))
(let (($e127 (ite (= bvlambda_4_ $e126) #b1 #b0)))
(let (($e128 ((_ extract 11 11) $e125)))
(let (($e129 (ite (= bvlambda_3_ $e128) #b1 #b0)))
(let (($e130 ((_ extract 13 12) $e125)))
(let (($e131 (ite (= bvlambda_2_ $e130) #b1 #b0)))
(let (($e132 ((_ extract 14 14) $e125)))
(let (($e133 (ite (= bvlambda_1_ $e132) #b1 #b0)))
(let (($e134 (bvand $e133 $e131)))
(let (($e135 (bvand $e134 $e129)))
(let (($e136 (bvand $e135 $e127)))
(let (($e137 (concat (bvnot $e2) (bvnot $e93))))
(let (($e138 (concat $e2 (bvnot $e93))))
(let (($e139 (ite (= #b1 $e106) $e138 $e137)))
(let (($e140 (ite (= (bvnot $e5) $e139) #b1 #b0)))
(let (($e141 (bvand $e140 (bvnot $e136))))
(let (($e142 ((_ extract 2 2) $e93)))
(let (($e143 (select $e81 $e142)))
(let (($e144 ((_ extract 4 4) $e143)))
(let (($e145 (bvand $e144 (bvnot $e141))))
(let (($e146 (concat $e18 $e93)))
(let (($e147 (ite (bvult $e146 (bvnot $e6)) #b1 #b0)))
(let (($e148 (concat $e19 (bvnot $e147))))
(let (($e149 (bvurem $e148 $e12)))
(let (($e150 (concat $e18 $e149)))
(let (($e151 (concat (bvnot $e18) $e149)))
(let (($e152 ((_ extract 8 8) $e149)))
(let (($e153 (ite (= #b1 $e152) $e151 $e150)))
(let (($e154 (bvand (bvnot $e22) $e153)))
(let (($e155 (select $e59 $e100)))
(let (($e156 (ite (= $e82 $e155) #b1 #b0)))
(let (($e157 (concat (bvnot $e32) (bvnot $e156))))
(let (($e158 (concat $e32 (bvnot $e156))))
(let (($e159 (ite (= #b1 $e156) $e158 $e157)))
(let (($e160 (ite (bvult $e159 (bvnot $e154)) #b1 #b0)))
(let (($e161 (bvand $e160 $e145)))
(let (($e162 (ite (= $e93 (bvnot $e20)) #b1 #b0)))
(let (($e163 (bvand (bvnot $e162) (bvnot $e161))))
(let (($e164 (concat $e2 $e93)))
(let (($e165 (concat (bvnot $e2) $e93)))
(let (($e166 (ite (= #b1 $e106) $e165 $e164)))
(let (($e167 ((_ extract 5 0) $e166)))
(let (($e168 (ite (bvult $e29 $e167) #b1 #b0)))
(let (($e169 ((_ extract 6 6) $e166)))
(let (($e170 (bvand (bvnot $e169) $e168)))
(let (($e171 (bvand (bvnot $e170) (bvnot $e163))))
(let (($e172 (bvand $e171 $e119)))
(let (($e173 ((_ extract 3 0) $e155)))
(let (($e174 (ite (bvult (bvnot $e20) $e56) #b1 #b0)))
(let (($e175 (concat $e28 (bvnot $e174))))
(let (($e176 (ite (bvult $e175 $e173) #b1 #b0)))
(let (($e177 ((_ extract 4 4) $e155)))
(let (($e178 (bvand (bvnot $e177) $e176)))
(let (($e179 (bvand (bvnot $e178) (bvnot $e172))))
(let (($e180 (concat (bvnot $e39) (bvnot $e143))))
(let (($e181 (concat $e39 (bvnot $e143))))
(let (($e182 (ite (= #b1 $e144) $e181 $e180)))
(let (($e183 (ite (bvult $e182 $e25) #b1 #b0)))
(let (($e184 (ite (= (bvnot $e183) $e179) #b1 #b0)))
(let (($e185 (concat (bvnot $e18) (bvnot $e174))))
(let (($e186 (concat $e18 (bvnot $e174))))
(let (($e187 (ite (= #b1 $e174) $e186 $e185)))
(let (($e188 (bvurem $e187 $e5)))
(let (($e189 (concat $e2 $e143)))
(let (($e190 (ite (bvult $e189 $e188) #b1 #b0)))
(let (($e191 (bvand $e190 (bvnot $e156))))
(let (($e192 (ite (bvult $e143 $e13) #b1 #b0)))
(let (($e193 (bvand (bvnot $e192) $e191)))
(let (($e194 (bvand (bvnot $e193) $e184)))
(let (($e195 (select $e59 $e1)))
(let (($e196 ((_ extract 3 3) $e195)))
(let (($e197 (ite (= $e63 $e196) #b1 #b0)))
(let (($e198 ((_ extract 3 0) $e195)))
(let (($e199 ((_ extract 3 0) $e60)))
(let (($e200 (ite (bvult $e199 $e198) #b1 #b0)))
(let (($e201 (bvand $e200 $e197)))
(let (($e202 (bvand $e63 (bvnot $e196))))
(let (($e203 (bvand (bvnot $e202) (bvnot $e201))))
(let (($e204 (bvand $e77 (bvnot $e203))))
(let (($e205 ((_ extract 3 0) $e84)))
(let (($e206 (ite (bvult $e205 (bvnot $e37)) #b1 #b0)))
(let (($e207 (bvand (bvnot $e87) (bvnot $e206))))
(let (($e208 (bvand (bvnot $e207) (bvnot $e204))))
(let (($e209 (concat $e16 $e71)))
(let (($e210 (concat (bvnot $e16) $e71)))
(let (($e211 (ite (= #b1 $e71) $e210 $e209)))
(let (($e212 (ite (bvult $e211 $e93) #b1 #b0)))
(let (($e213 (bvand $e212 $e204)))
(let (($e214 (bvand (bvnot $e213) (bvnot $e208))))
(let (($e215 (bvand $e214 $e194)))
(let (($e216 (ite (= (bvnot $e16) $e98) #b1 #b0)))
(let (($e217 (bvand $e100 (bvnot $e216))))
(let (($e218 (ite (bvult $e115 $e72) #b1 #b0)))
(let (($e219 (bvand (bvnot $e106) (bvnot $e218))))
(let (($e220 (bvand $e219 (bvnot $e217))))
(let (($e221 (bvand $e220 (bvnot $e215))))
(let (($e222 ((_ extract 3 0) $e82)))
(let (($e223 (ite (= $e16 $e222) #b1 #b0)))
(let (($e224 (bvand (bvnot $e114) (bvnot $e223))))
(let (($e225 (ite (bvult $e115 $e36) #b1 #b0)))
(let (($e226 (bvand (bvnot $e106) (bvnot $e225))))
(let (($e227 (bvand $e226 $e224)))
(let (($e228 (concat $e18 $e56)))
(let (($e229 (ite (bvult $e11 $e228) #b1 #b0)))
(let (($e230 (bvand $e229 (bvnot $e227))))
(let (($e231 (bvand (bvnot $e230) $e215)))
(let (($e232 (bvand (bvnot $e231) (bvnot $e221))))
(let (($e233 (bvand $e232 (bvnot $e110))))
(let (($e234 (concat (bvnot $e16) (bvnot $e156))))
(let (($e235 (concat $e16 (bvnot $e156))))
(let (($e236 (ite (= #b1 $e156) $e235 $e234)))
(let (($e237 ((_ extract 3 0) $e236)))
(let (($e238 (ite (bvult (bvnot $e23) $e237) #b1 #b0)))
(let (($e239 ((_ extract 4 4) $e236)))
(let (($e240 (bvand (bvnot $e239) $e238)))
(let (($e241 ((_ extract 14 0) $e125)))
(let (($e242 (concat $e17 $e93)))
(let (($e243 (concat (bvnot $e17) $e93)))
(let (($e244 (ite (= #b1 $e106) $e243 $e242)))
(let (($e245 (ite (= $e244 $e241) #b1 #b0)))
(let (($e246 (concat $e16 $e65)))
(let (($e247 (concat (bvnot $e16) $e65)))
(let (($e248 (ite (= #b1 $e65) $e247 $e246)))
(let (($e249 (ite (= $e3 $e248) #b1 #b0)))
(let (($e250 (concat $e32 $e71)))
(let (($e251 (bvand $e31 $e250)))
(let (($e252 (ite (bvult $e53 $e251) #b1 #b0)))
(let (($e253 (bvand (bvnot $e252) $e249)))
(let (($e254 (bvand (bvnot $e253) $e245)))
(let (($e255 ((_ extract 14 14) $e244)))
(let (($e256 (ite (= $e255 $e92) #b1 #b0)))
(let (($e257 ((_ extract 13 0) $e244)))
(let (($e258 (ite (bvult $e111 $e257) #b1 #b0)))
(let (($e259 (bvand $e258 $e256)))
(let (($e260 (bvand (bvnot $e255) $e92)))
(let (($e261 (bvand (bvnot $e260) (bvnot $e259))))
(let (($e262 (ite (= $e3 $e56) #b1 #b0)))
(let (($e263 (bvand (bvnot $e262) $e261)))
(let (($e264 (bvand $e263 $e253)))
(let (($e265 (bvand (bvnot $e264) (bvnot $e254))))
(let (($e266 ((_ extract 5 0) $e188)))
(let (($e267 (concat $e1 $e56)))
(let (($e268 (ite (bvult $e267 $e266) #b1 #b0)))
(let (($e269 ((_ extract 6 6) $e188)))
(let (($e270 (bvand (bvnot $e269) $e268)))
(let (($e271 (ite (= $e149 $e27) #b1 #b0)))
(let (($e272 (bvand $e271 $e270)))
(let (($e273 (bvand (bvnot $e272) (bvnot $e265))))
(let (($e274 (ite (bvult (bvnot $e20) $e93) #b1 #b0)))
(let (($e275 (bvand (bvnot $e274) (bvnot $e132))))
(let (($e276 (ite (= (bvnot $e275) $e273) #b1 #b0)))
(let (($e277 (ite (= $e16 $e115) #b1 #b0)))
(let (($e278 (bvand (bvnot $e106) (bvnot $e277))))
(let (($e279 (bvand $e94 $e278)))
(let (($e280 (bvand (bvnot $e71) $e279)))
(let (($e281 (bvand (bvnot $e280) (bvnot $e276))))
(let (($e282 (concat $e16 $e93)))
(let (($e283 (concat (bvnot $e16) $e93)))
(let (($e284 (ite (= #b1 $e106) $e283 $e282)))
(let (($e285 ((_ extract 8 8) $e284)))
(let (($e286 (ite (= $e285 $e77) #b1 #b0)))
(let (($e287 (bvand $e274 $e286)))
(let (($e288 (ite (bvult $e155 (bvnot $e14)) #b1 #b0)))
(let (($e289 (ite (= $e3 $e195) #b1 #b0)))
(let (($e290 (bvand $e289 (bvnot $e288))))
(let (($e291 (bvurem (bvnot $e14) $e82)))
(let (($e292 (concat (bvnot $e16) (bvnot $e174))))
(let (($e293 (concat $e16 (bvnot $e174))))
(let (($e294 (ite (= #b1 $e174) $e293 $e292)))
(let (($e295 (ite (= $e294 $e291) #b1 #b0)))
(let (($e296 (bvand (bvnot $e295) $e290)))
(let (($e297 (ite (= $e143 $e73) #b1 #b0)))
(let (($e298 (bvand $e295 $e297)))
(let (($e299 (bvand (bvnot $e298) (bvnot $e296))))
(let (($e300 (ite (bvult $e93 $e60) #b1 #b0)))
(let (($e301 (bvand (bvnot $e300) $e299)))
(let (($e302 (bvand (bvnot $e301) (bvnot $e287))))
(let (($e303 (ite (= (bvnot $e16) $e198) #b1 #b0)))
(let (($e304 (bvand (bvnot $e303) $e301)))
(let (($e305 (bvand (bvnot $e304) (bvnot $e302))))
(let (($e306 ((_ extract 0 0) $e195)))
(let (($e307 (ite (= $e71 $e306) #b1 #b0)))
(let (($e308 ((_ extract 3 1) $e195)))
(let (($e309 (ite (= $e28 $e308) #b1 #b0)))
(let (($e310 (bvand $e309 $e307)))
(let (($e311 ((_ extract 3 0) $e294)))
(let (($e312 (ite (bvult (bvnot $e37) $e311) #b1 #b0)))
(let (($e313 ((_ extract 4 4) $e294)))
(let (($e314 (bvand (bvnot $e313) $e312)))
(let (($e315 (bvand (bvnot $e314) $e310)))
(let (($e316 (ite (= $e16 $e98) #b1 #b0)))
(let (($e317 (bvand (bvnot $e100) (bvnot $e316))))
(let (($e318 (bvand (bvnot $e317) (bvnot $e315))))
(let (($e319 ((_ extract 3 0) $e291)))
(let (($e320 (ite (bvult $e319 $e23) #b1 #b0)))
(let (($e321 ((_ extract 4 4) $e291)))
(let (($e322 (bvand $e321 $e320)))
(let (($e323 (concat (bvnot $e39) (bvnot $e174))))
(let (($e324 (concat $e39 (bvnot $e174))))
(let (($e325 (ite (= #b1 $e174) $e324 $e323)))
(let (($e326 ((_ extract 11 11) $e325)))
(let (($e327 (concat (bvnot $e21) (bvnot $e93))))
(let (($e328 (concat $e21 (bvnot $e93))))
(let (($e329 (ite (= #b1 $e106) $e328 $e327)))
(let (($e330 (bvmul (bvnot $e7) $e329)))
(let (($e331 ((_ extract 11 11) $e330)))
(let (($e332 (ite (= $e331 $e326) #b1 #b0)))
(let (($e333 ((_ extract 10 0) $e330)))
(let (($e334 ((_ extract 10 0) $e325)))
(let (($e335 (ite (bvult $e334 $e333) #b1 #b0)))
(let (($e336 (bvand $e335 $e332)))
(let (($e337 (bvand (bvnot $e331) $e326)))
(let (($e338 (bvand (bvnot $e337) (bvnot $e336))))
(let (($e339 (bvand (bvnot $e338) $e322)))
(let (($e340 (ite (= $e93 $e20) #b1 #b0)))
(let (($e341 (ite (bvult (bvnot $e30) $e257) #b1 #b0)))
(let (($e342 (bvand $e255 (bvnot $e341))))
(let (($e343 (bvand $e342 $e340)))
(let (($e344 (bvand $e343 $e339)))
(let (($e345 (bvand (bvnot $e343) (bvnot $e339))))
(let (($e346 (bvand (bvnot $e345) (bvnot $e344))))
(let (($e347 (ite (= $e346 (bvnot $e318)) #b1 #b0)))
(let (($e348 (ite (= $e16 $e198) #b1 #b0)))
(let (($e349 (ite (= $e16 $e319) #b1 #b0)))
(let (($e350 (bvand (bvnot $e321) (bvnot $e349))))
(let (($e351 (ite (= $e350 $e348) #b1 #b0)))
(let (($e352 (ite (bvult (bvnot $e34) $e54) #b1 #b0)))
(let (($e353 (bvand $e352 $e351)))
(let (($e354 (bvand $e105 (bvnot $e353))))
(let (($e355 (concat $e33 $e198)))
(let (($e356 (concat (bvnot $e33) $e198)))
(let (($e357 (ite (= #b1 $e196) $e356 $e355)))
(let (($e358 ((_ extract 14 0) $e357)))
(let (($e359 (ite (bvult (bvnot $e34) $e358) #b1 #b0)))
(let (($e360 ((_ extract 15 15) $e357)))
(let (($e361 (bvand (bvnot $e360) $e359)))
(let (($e362 ((_ extract 7 0) $e149)))
(let (($e363 (ite (= $e19 $e362) #b1 #b0)))
(let (($e364 (bvand (bvnot $e152) (bvnot $e363))))
(let (($e365 (ite (= $e364 $e361) #b1 #b0)))
(let (($e366 (concat $e2 $e71)))
(let (($e367 (bvand $e8 $e366)))
(let (($e368 (ite (= $e367 $e28) #b1 #b0)))
(let (($e369 (ite (= $e368 $e365) #b1 #b0)))
(let (($e370 (ite (= $e369 (bvnot $e354)) #b1 #b0)))
(let (($e371 (bvand $e370 (bvnot $e347))))
(let (($e372 (bvand (bvnot $e371) (bvnot $e305))))
(let (($e373 (bvand $e280 (bvnot $e372))))
(let (($e374 (bvand (bvnot $e373) (bvnot $e281))))
(let (($e375 (concat (bvnot $e19) (bvnot $e156))))
(let (($e376 (concat $e19 (bvnot $e156))))
(let (($e377 (ite (= #b1 $e156) $e376 $e375)))
(let (($e378 ((_ extract 7 0) $e377)))
(let (($e379 (ite (bvult $e378 $e4) #b1 #b0)))
(let (($e380 ((_ extract 8 8) $e377)))
(let (($e381 (bvand $e380 $e379)))
(let (($e382 (ite (bvult $e241 $e244) #b1 #b0)))
(let (($e383 ((_ extract 13 0) $e153)))
(let (($e384 (bvand (bvnot $e30) $e383)))
(let (($e385 (ite (bvult $e384 $e40) #b1 #b0)))
(let (($e386 ((_ extract 14 14) $e153)))
(let (($e387 (bvand $e386 $e385)))
(let (($e388 (bvand $e387 (bvnot $e382))))
(let (($e389 (bvand (bvnot $e387) $e117)))
(let (($e390 (bvand (bvnot $e389) (bvnot $e388))))
(let (($e391 (bvand $e94 $e390)))
(let (($e392 (bvand (bvnot $e94) (bvnot $e390))))
(let (($e393 (bvand (bvnot $e392) (bvnot $e391))))
(let (($e394 (bvand (bvnot $e393) (bvnot $e381))))
(let (($e395 (ite (bvult $e53 $e45) #b1 #b0)))
(let (($e396 (concat $e27 $e155)))
(let (($e397 ((_ extract 13 0) $e125)))
(let (($e398 (ite (bvult $e397 $e396) #b1 #b0)))
(let (($e399 (bvand (bvnot $e132) (bvnot $e398))))
(let (($e400 (bvand $e399 (bvnot $e395))))
(let (($e401 (ite (= $e400 $e394) #b1 #b0)))
(let (($e402 (ite (= (bvnot $e3) $e236) #b1 #b0)))
(let (($e403 (concat $e16 $e402)))
(let (($e404 (ite (bvult $e403 $e56) #b1 #b0)))
(let (($e405 (ite (bvult $e257 (bvnot $e26)) #b1 #b0)))
(let (($e406 (bvand $e255 $e405)))
(let (($e407 (bvand (bvnot $e406) $e404)))
(let (($e408 (concat $e27 $e73)))
(let (($e409 (ite (bvult (bvnot $e384) $e408) #b1 #b0)))
(let (($e410 (bvand $e386 (bvnot $e409))))
(let (($e411 (ite (bvult (bvnot $e43) $e330) #b1 #b0)))
(let (($e412 (bvand $e411 $e410)))
(let (($e413 (concat (bvnot $e17) (bvnot $e143))))
(let (($e414 (concat $e17 (bvnot $e143))))
(let (($e415 (ite (= #b1 $e144) $e414 $e413)))
(let (($e416 ((_ extract 14 14) $e415)))
(let (($e417 (bvand $e416 bvlambda_1_)))
(let (($e418 (bvand (bvnot $e416) (bvnot bvlambda_1_))))
(let (($e419 (bvand (bvnot $e418) (bvnot $e417))))
(let (($e420 ((_ extract 13 0) $e415)))
(let (($e421 (concat bvlambda_2_ bvlambda_3_)))
(let (($e422 (concat $e421 bvlambda_4_)))
(let (($e423 (bvand $e38 (bvnot $e422))))
(let (($e424 (ite (bvult $e423 $e420) #b1 #b0)))
(let (($e425 (bvand $e424 $e419)))
(let (($e426 (bvand (bvnot $e418) (bvnot $e425))))
(let (($e427 (bvand $e426 (bvnot $e412))))
(let (($e428 (bvand (bvnot $e427) $e407)))
(let (($e429 (bvand $e428 $e401)))
(let (($e430 (bvand (bvnot $e428) (bvnot $e401))))
(let (($e431 (bvand (bvnot $e430) (bvnot $e429))))
(let (($e432 (ite (= (bvnot $e16) $e115) #b1 #b0)))
(let (($e433 (bvand $e106 (bvnot $e432))))
(let (($e434 (bvand $e433 $e114)))
(let (($e435 (bvand $e434 (bvnot $e431))))
(let (($e436 (bvand $e435 $e374)))
(let (($e437 (ite (= $e13 $e291) #b1 #b0)))
(let (($e438 (ite (= (bvnot $e437) $e436) #b1 #b0)))
(let (($e439 (bvand (bvnot $e438) (bvnot $e240))))
(let (($e440 (concat $e196 $e198)))
(let (($e441 (ite (bvult $e440 (bvnot $e14)) #b1 #b0)))
(let (($e442 (ite (bvult $e44 $e91) #b1 #b0)))
(let (($e443 (bvand (bvnot $e442) (bvnot $e441))))
(let (($e444 (ite (= $e330 $e33) #b1 #b0)))
(let (($e445 (bvand $e364 $e444)))
(let (($e446 (bvand (bvnot $e364) (bvnot $e444))))
(let (($e447 (bvand (bvnot $e446) (bvnot $e445))))
(let (($e448 (ite (bvult (bvnot $e42) $e330) #b1 #b0)))
(let (($e449 (bvand $e448 $e447)))
(let (($e450 (bvand (bvnot $e448) (bvnot $e447))))
(let (($e451 (bvand (bvnot $e450) (bvnot $e449))))
(let (($e452 (ite (= $e451 $e443) #b1 #b0)))
(let (($e453 (ite (bvult $e64 $e5) #b1 #b0)))
(let (($e454 (bvand (bvnot $e177) $e453)))
(let (($e455 (bvand $e262 $e177)))
(let (($e456 (bvand (bvnot $e455) (bvnot $e454))))
(let (($e457 (ite (bvult (bvnot $e14) $e143) #b1 #b0)))
(let (($e458 (bvand (bvnot $e457) $e456)))
(let (($e459 (bvand (bvnot $e458) (bvnot $e452))))
(let (($e460 (bvand $e458 $e452)))
(let (($e461 (bvand (bvnot $e460) (bvnot $e459))))
(let (($e462 (bvand (bvnot $e461) $e438)))
(let (($e463 (bvand (bvnot $e462) (bvnot $e439))))
(let (($e464 (bvand $e463 (bvnot $e233))))
(let (($e465 (concat (bvnot $e32) $e71)))
(let (($e466 (ite (= #b1 $e71) $e465 $e250)))
(let (($e467 (ite (= $e466 $e241) #b1 #b0)))
(let (($e468 (concat $e18 $e71)))
(let (($e469 (ite (bvult $e5 $e468) #b1 #b0)))
(let (($e470 (ite (bvult $e20 (bvnot $e93)) #b1 #b0)))
(let (($e471 (bvand (bvnot $e470) (bvnot $e469))))
(let (($e472 (bvand (bvnot $e471) (bvnot $e467))))
(let (($e473 ((_ extract 4 4) $e195)))
(let (($e474 (bvand (bvnot $e473) (bvnot $e472))))
(let (($e475 (bvand $e473 $e472)))
(let (($e476 (bvand (bvnot $e475) (bvnot $e474))))
(let (($e477 (concat $e28 $e143)))
(let (($e478 (ite (bvult $e362 $e477) #b1 #b0)))
(let (($e479 (bvand (bvnot $e152) (bvnot $e478))))
(let (($e480 (bvand $e278 $e479)))
(let (($e481 ((_ extract 4 4) $e211)))
(let (($e482 (ite (= $e481 $e144) #b1 #b0)))
(let (($e483 ((_ extract 3 0) $e211)))
(let (($e484 ((_ extract 3 0) $e143)))
(let (($e485 (ite (bvult $e484 $e483) #b1 #b0)))
(let (($e486 (bvand $e485 $e482)))
(let (($e487 (bvand (bvnot $e481) $e144)))
(let (($e488 (bvand (bvnot $e487) (bvnot $e486))))
(let (($e489 (concat $e3 (bvnot $e147))))
(let (($e490 (ite (bvult $e29 $e489) #b1 #b0)))
(let (($e491 (ite (= $e490 $e488) #b1 #b0)))
(let (($e492 (bvand $e491 $e480)))
(let (($e493 (bvand (bvnot $e492) $e476)))
(let (($e494 (concat (bvnot $e2) (bvnot $e143))))
(let (($e495 (concat $e2 (bvnot $e143))))
(let (($e496 (ite (= #b1 $e144) $e495 $e494)))
(let (($e497 (ite (bvult $e188 $e496) #b1 #b0)))
(let (($e498 (ite (= (bvnot $e93) $e20) #b1 #b0)))
(let (($e499 (bvand (bvnot $e498) $e497)))
(let (($e500 (concat $e3 $e93)))
(let (($e501 (ite (bvult $e500 (bvnot $e35)) #b1 #b0)))
(let (($e502 (bvand (bvnot $e501) (bvnot $e499))))
(let (($e503 (bvand $e501 $e499)))
(let (($e504 (bvand (bvnot $e503) (bvnot $e502))))
(let (($e505 (bvand $e504 $e493)))
(let (($e506 (bvand (bvnot $e504) (bvnot $e493))))
(let (($e507 (bvand (bvnot $e506) (bvnot $e505))))
(let (($e508 (bvand (bvnot $e507) (bvnot $e464))))
(let (($e509 (ite (= $e3 $e93) #b1 #b0)))
(let (($e510 (ite (= $e3 $e82) #b1 #b0)))
(let (($e511 (bvand (bvnot $e510) (bvnot $e509))))
(let (($e512 (bvand $e511 (bvnot $e508))))
(let (($e513 (bvand $e512 $e55)))
 (not (= $e513 #b0)))))))))))))))))))))))))))))))))))))))))))))))))))))))))))))))))))))))))))))))))))))))))))))))))))))))))))))))))))))))))))))))))))))))))))))))))))))))))))))))))))))))))))))))))))))))))))))))))))))))))))))))))))))))))))))))))))))))))))))))))))))))))))))))))))))))))))))))))))))))))))))))))))))))))))))))))))))))))))))))))))))))))))))))))))))))))))))))))))))))))))))))))))))))))))))))))))))))))))))))))))))))))))))))))))))))))))))))))))))))))))))))))))))))))))))))))))))))))))))))))))))))))))))))))))))))))))))))
(check-sat)
(exit)
